(set-info :source |printed by MathSAT|)
(declare-fun call_Sofar.flby () Bool)
(declare-fun param_Delta.next () Int)
(declare-fun Total.next () Int)
(declare-fun _OK_ () Bool)
(declare-fun call_Store.flby.next () Int)
(declare-fun call_Sofar._Y_ () Bool)
(declare-fun param_Delta () Int)
(declare-fun call_Store.Total.next () Int)
(declare-fun call_Store.ite.next () Int)
(declare-fun call_Store.Total () Int)
(declare-fun _OK_.next () Bool)
(declare-fun call_Store.ite () Int)
(declare-fun call_Store.Prev.next () Int)
(declare-fun call_Store.ite2 () Int)
(declare-fun Total () Int)
(declare-fun call_Store.ite2.next () Int)
(declare-fun call_Sofar.flby.next () Bool)
(declare-fun call_Store.Prev () Int)
(declare-fun call_Store.flby () Int)
(declare-fun call_Sofar._Y_.next () Bool)
(define-fun .def_267 () Bool (<= param_Delta.next 1))
(define-fun .def_266 () Bool (<= (- 1) param_Delta.next))
(define-fun .def_268 () Bool (and .def_266 .def_267))
(define-fun .def_269 () Bool (and call_Sofar.flby.next .def_268))
(define-fun .def_270 () Bool (= call_Sofar._Y_.next .def_269))
(define-fun .def_264 () Bool (= call_Store.flby.next call_Store.Prev.next))
(define-fun .def_262 () Bool (= call_Store.Total.next call_Store.ite2.next))
(define-fun .def_258 () Bool (= call_Store.ite.next call_Store.ite2.next))
(define-fun .def_245 () Bool (<= call_Store.Prev.next 0))
(define-fun .def_246 () Bool (not .def_245))
(define-fun .def_243 () Bool (<= 0 param_Delta.next))
(define-fun .def_244 () Bool (not .def_243))
(define-fun .def_247 () Bool (and .def_244 .def_246))
(define-fun .def_259 () Bool (or .def_247 .def_258))
(define-fun .def_250 () Int (* (- 1) call_Store.ite2.next))
(define-fun .def_253 () Int (+ param_Delta.next .def_250))
(define-fun .def_254 () Int (+ call_Store.Prev.next .def_253))
(define-fun .def_255 () Bool (= .def_254 0))
(define-fun .def_248 () Bool (not .def_247))
(define-fun .def_256 () Bool (or .def_248 .def_255))
(define-fun .def_236 () Int (* (- 1) param_Delta.next))
(define-fun .def_237 () Int (* (- 1) call_Store.Prev.next))
(define-fun .def_238 () Int (+ .def_237 .def_236))
(define-fun .def_239 () Int (+ call_Store.ite.next .def_238))
(define-fun .def_240 () Bool (= .def_239 0))
(define-fun .def_228 () Bool (<= 10 call_Store.Prev.next))
(define-fun .def_229 () Bool (not .def_228))
(define-fun .def_226 () Bool (<= param_Delta.next 0))
(define-fun .def_227 () Bool (not .def_226))
(define-fun .def_230 () Bool (and .def_227 .def_229))
(define-fun .def_232 () Bool (not .def_230))
(define-fun .def_241 () Bool (or .def_232 .def_240))
(define-fun .def_224 () Bool (= call_Store.ite.next call_Store.Prev.next))
(define-fun .def_231 () Bool (or .def_224 .def_230))
(define-fun .def_242 () Bool (and .def_231 .def_241))
(define-fun .def_257 () Bool (and .def_242 .def_256))
(define-fun .def_260 () Bool (and .def_257 .def_259))
(define-fun .def_220 () Bool (= Total.next call_Store.Total.next))
(define-fun .def_215 () Bool (<= Total.next 20))
(define-fun .def_214 () Bool (<= 0 Total.next))
(define-fun .def_216 () Bool (and .def_214 .def_215))
(define-fun .def_212 () Bool (not call_Sofar._Y_.next))
(define-fun .def_217 () Bool (or .def_212 .def_216))
(define-fun .def_218 () Bool (= _OK_.next .def_217))
(define-fun .def_221 () Bool (and .def_218 .def_220))
(define-fun .def_261 () Bool (and .def_221 .def_260))
(define-fun .def_263 () Bool (and .def_261 .def_262))
(define-fun .def_265 () Bool (and .def_263 .def_264))
(define-fun .def_271 () Bool (and .def_265 .def_270))
(define-fun .def_196 () Bool (<= param_Delta 1))
(define-fun .def_195 () Bool (<= (- 1) param_Delta))
(define-fun .def_197 () Bool (and .def_195 .def_196))
(define-fun .def_199 () Bool (and .def_197 call_Sofar.flby))
(define-fun .def_200 () Bool (= call_Sofar._Y_ .def_199))
(define-fun .def_193 () Bool (= call_Store.Prev call_Store.flby))
(define-fun .def_190 () Bool (= call_Store.Total call_Store.ite2))
(define-fun .def_186 () Bool (= call_Store.ite call_Store.ite2))
(define-fun .def_173 () Bool (<= call_Store.Prev 0))
(define-fun .def_174 () Bool (not .def_173))
(define-fun .def_171 () Bool (<= 0 param_Delta))
(define-fun .def_172 () Bool (not .def_171))
(define-fun .def_175 () Bool (and .def_172 .def_174))
(define-fun .def_187 () Bool (or .def_175 .def_186))
(define-fun .def_178 () Int (* (- 1) call_Store.ite2))
(define-fun .def_181 () Int (+ param_Delta .def_178))
(define-fun .def_182 () Int (+ call_Store.Prev .def_181))
(define-fun .def_183 () Bool (= .def_182 0))
(define-fun .def_176 () Bool (not .def_175))
(define-fun .def_184 () Bool (or .def_176 .def_183))
(define-fun .def_164 () Int (* (- 1) param_Delta))
(define-fun .def_165 () Int (* (- 1) call_Store.Prev))
(define-fun .def_166 () Int (+ .def_165 .def_164))
(define-fun .def_167 () Int (+ call_Store.ite .def_166))
(define-fun .def_168 () Bool (= .def_167 0))
(define-fun .def_156 () Bool (<= 10 call_Store.Prev))
(define-fun .def_157 () Bool (not .def_156))
(define-fun .def_154 () Bool (<= param_Delta 0))
(define-fun .def_155 () Bool (not .def_154))
(define-fun .def_158 () Bool (and .def_155 .def_157))
(define-fun .def_160 () Bool (not .def_158))
(define-fun .def_169 () Bool (or .def_160 .def_168))
(define-fun .def_152 () Bool (= call_Store.ite call_Store.Prev))
(define-fun .def_159 () Bool (or .def_152 .def_158))
(define-fun .def_170 () Bool (and .def_159 .def_169))
(define-fun .def_185 () Bool (and .def_170 .def_184))
(define-fun .def_188 () Bool (and .def_185 .def_187))
(define-fun .def_148 () Bool (= Total call_Store.Total))
(define-fun .def_143 () Bool (<= Total 20))
(define-fun .def_142 () Bool (<= 0 Total))
(define-fun .def_144 () Bool (and .def_142 .def_143))
(define-fun .def_140 () Bool (not call_Sofar._Y_))
(define-fun .def_145 () Bool (or .def_140 .def_144))
(define-fun .def_146 () Bool (= _OK_ .def_145))
(define-fun .def_149 () Bool (and .def_146 .def_148))
(define-fun .def_189 () Bool (and .def_149 .def_188))
(define-fun .def_191 () Bool (and .def_189 .def_190))
(define-fun .def_194 () Bool (and .def_191 .def_193))
(define-fun .def_201 () Bool (and .def_194 .def_200))
(define-fun .def_272 () Bool (and .def_201 .def_271))
(define-fun .def_208 () Bool (= call_Sofar._Y_ call_Sofar.flby.next))
(define-fun .def_206 () Bool (= call_Store.Total call_Store.flby.next))
(define-fun .def_209 () Bool (and .def_206 .def_208))
(define-fun .def_273 () Bool (and .def_209 .def_272))
(assert .def_273)
